NAME : tsp50_20.230.tour
COMMENT : Length = 230
COMMENT : Found by LKH [Keld Helsgaun]
TYPE : TOUR
DIMENSION : 50
TOUR_SECTION
1
14
22
39
36
49
37
34
45
50
47
21
12
15
30
9
17
20
31
24
4
27
16
3
38
7
33
19
5
42
13
35
41
29
23
11
46
25
28
10
26
8
32
48
18
44
40
2
6
43
-1
EOF
